results_rootrelaxation/bin012_050_025.srr.sol
solution status: optimal solution found
objective value:                 -8.32667268468867e-17
_var154_                             0.12920820357847 	(obj:0)
_var614_                            0.185962520039065 	(obj:0)
_var666_                            0.179679006430927 	(obj:0)
_var670_                            0.264202399159741 	(obj:0)
_var672_                            0.199266616300282 	(obj:0)
_var673_                             0.35272439145737 	(obj:0)
_var686_                            0.264202399159741 	(obj:0)
_var692_                           0.0884667121192579 	(obj:0)
_var695_                            0.202380733015164 	(obj:0)
_var697_                           0.0102084062724578 	(obj:0)
_var698_                            0.310324494647037 	(obj:0)
_var703_                            0.251506384860602 	(obj:0)
_var710_                           0.0316386887541692 	(obj:0)
_var711_                            0.321970185557132 	(obj:0)
_var716_                            0.320164366397023 	(obj:0)
_var723_                            0.519430982697304 	(obj:0)
_var724_                            0.151264994748383 	(obj:0)
_var725_                            0.249700565700492 	(obj:0)
_var727_                            0.162836978753985 	(obj:0)
_var729_                            0.388066852162377 	(obj:0)
_var730_                           0.0666494683889513 	(obj:0)
_var731_                            0.119773719803203 	(obj:0)
_var732_                            0.301958760986935 	(obj:0)
_var733_                             0.58698336066631 	(obj:0)
_var736_                           0.0114982771011075 	(obj:0)
_var739_                            0.183345924929519 	(obj:0)
_var740_                             0.18588881313457 	(obj:0)
_var742_                            0.102692144686653 	(obj:0)
_var743_                            0.278188284287531 	(obj:0)
_var745_                            0.241316405314268 	(obj:0)
_var746_                           0.0284508651347912 	(obj:0)
_var747_                            0.134625661058799 	(obj:0)
_var751_                            0.292800678103521 	(obj:0)
_var753_                            0.199266616300282 	(obj:0)
_var754_                           0.0929628332934091 	(obj:0)
_var756_                            0.199266616300282 	(obj:0)
_var757_                            0.182443015349463 	(obj:0)
_var763_                            0.286830418839485 	(obj:0)
_var764_                            0.146123938159907 	(obj:0)
_var765_                           0.0594077650223885 	(obj:0)
_var768_                           0.0727671414619767 	(obj:0)
_var770_                            0.449814811402458 	(obj:0)
_var772_                           0.0777423575153398 	(obj:0)
_var774_                            0.314341520941974 	(obj:0)
_var775_                           0.0850209143341498 	(obj:0)
_var781_                           0.0575098122316606 	(obj:0)
_var782_                            0.161841935543312 	(obj:0)
_var783_                            0.183806593082607 	(obj:0)
_var786_                          0.000276400891853101 	(obj:0)
_var787_                           0.0561646612246396 	(obj:0)
_var788_                           0.0141885791151485 	(obj:0)
_var790_                            0.379111463266321 	(obj:0)
_var792_                            0.122298181282132 	(obj:0)
_var795_                            0.122077060568648 	(obj:0)
_var797_                           0.0365217711769155 	(obj:0)
_var799_                           0.0768578746614091 	(obj:0)
_var803_                            0.241168991505279 	(obj:0)
_var804_                            0.155890103005399 	(obj:0)
_var807_                           0.0426947244283106 	(obj:0)
_var811_                           0.0399859956881461 	(obj:0)
_var817_                           0.0111665960308839 	(obj:0)
_var818_                           0.0150730619690798 	(obj:0)
