results_rootrelaxation/bin012_050_025.srr.log
SCIP version 8.0.3.5 [precision: 8 byte] [memory: block] [mode: optimized] [LP solver: Soplex 6.0.1.3] [GitHash: 438792519e]
Copyright (c) 2002-2023 Zuse Institute Berlin (ZIB)

External libraries: 
  Readline 8.1         GNU library for command line editing (gnu.org/s/readline)
  Soplex 6.0.1.3       Linear Programming Solver developed at Zuse Institute Berlin (soplex.zib.de) [GitHash: 713be0fe]
  CppAD 20180000.0     Algorithmic Differentiation of C++ algorithms developed by B. Bell (github.com/coin-or/CppAD)
  ZLIB 1.2.11          General purpose compression library by J. Gailly and M. Adler (zlib.net)
  bliss 0.77           Computing Graph Automorphism Groups by T. Junttila and P. Kaski (www.tcs.hut.fi/Software/bliss/)

user parameter file <scip.set> not found - using default parameters

srr/relaxation = TRUE

read problem <instances/bin012_050_025.srr>
============

Original problem: 
original problem has 0 variables (0 bin, 0 int, 0 impl, 0 cont) and 77 constraints

presolving:
presolving (1 rounds: 1 fast, 1 medium, 1 exhaustive):
 0 deleted vars, 0 deleted constraints, 0 added constraints, 0 tightened bounds, 0 added holes, 0 changed sides, 0 changed coefficients
 0 implications, 0 cliques
presolved problem has 0 variables (0 bin, 0 int, 0 impl, 0 cont) and 77 constraints
     77 constraints of type <linear>
Presolving Time: 0.00

 time | node  | left  |LP iter|LP it/n|mem/heur|mdpt |vars |cons |rows |cuts |sepa|confs|strbr|  dualbound   | primalbound  |  gap   | compl. 
  0.0s|     1 |     0 |     1 |     - |   710k |   0 |   1 |  77 |  77 |   0 |  0 |   0 |   0 |      --      |      --      |    Inf | unknown
r 0.0s|     1 |     0 |   793 |     - |simplero|   0 | 666 |  77 |  77 |   0 |  0 |   0 |   0 |      --      | 1.275620e+01 |    Inf | unknown
r 0.0s|     1 |     0 |   831 |     - |simplero|   0 | 677 |  77 |  77 |   0 |  0 |   0 |   0 |      --      | 1.122358e+01 |    Inf | unknown
r 0.1s|     1 |     0 |   872 |     - |simplero|   0 | 688 |  77 |  77 |   0 |  0 |   0 |   0 |      --      | 1.039988e+01 |    Inf | unknown
r 0.1s|     1 |     0 |   914 |     - |simplero|   0 | 699 |  77 |  77 |   0 |  0 |   0 |   0 |      --      | 8.624319e+00 |    Inf | unknown
r 0.1s|     1 |     0 |   934 |     - |simplero|   0 | 699 |  77 |  77 |   0 |  0 |   0 |   0 |      --      | 8.510540e+00 |    Inf | unknown
r 0.1s|     1 |     0 |   978 |     - |simplero|   0 | 710 |  77 |  77 |   0 |  0 |   0 |   0 |      --      | 6.403027e+00 |    Inf | unknown
r 0.1s|     1 |     0 |   988 |     - |simplero|   0 | 710 |  77 |  77 |   0 |  0 |   0 |   0 |      --      | 6.366798e+00 |    Inf | unknown
r 0.1s|     1 |     0 |  1035 |     - |simplero|   0 | 721 |  77 |  77 |   0 |  0 |   0 |   0 |      --      | 5.298636e+00 |    Inf | unknown
r 0.1s|     1 |     0 |  1106 |     - |simplero|   0 | 732 |  77 |  77 |   0 |  0 |   0 |   0 |      --      | 3.836802e+00 |    Inf | unknown
r 0.1s|     1 |     0 |  1110 |     - |simplero|   0 | 732 |  77 |  77 |   0 |  0 |   0 |   0 |      --      | 3.828457e+00 |    Inf | unknown
r 0.1s|     1 |     0 |  1146 |     - |simplero|   0 | 743 |  77 |  77 |   0 |  0 |   0 |   0 |      --      | 2.992362e+00 |    Inf | unknown
r 0.1s|     1 |     0 |  1158 |     - |simplero|   0 | 743 |  77 |  77 |   0 |  0 |   0 |   0 |      --      | 2.919515e+00 |    Inf | unknown
r 0.1s|     1 |     0 |  1197 |     - |simplero|   0 | 754 |  77 |  77 |   0 |  0 |   0 |   0 |      --      | 2.039603e+00 |    Inf | unknown
r 0.1s|     1 |     0 |  1203 |     - |simplero|   0 | 754 |  77 |  77 |   0 |  0 |   0 |   0 |      --      | 2.016606e+00 |    Inf | unknown
 time | node  | left  |LP iter|LP it/n|mem/heur|mdpt |vars |cons |rows |cuts |sepa|confs|strbr|  dualbound   | primalbound  |  gap   | compl. 
r 0.1s|     1 |     0 |  1207 |     - |simplero|   0 | 754 |  77 |  77 |   0 |  0 |   0 |   0 |      --      | 2.015018e+00 |    Inf | unknown
r 0.1s|     1 |     0 |  1238 |     - |simplero|   0 | 765 |  77 |  77 |   0 |  0 |   0 |   0 |      --      | 1.265714e+00 |    Inf | unknown
r 0.1s|     1 |     0 |  1259 |     - |simplero|   0 | 765 |  77 |  77 |   0 |  0 |   0 |   0 |      --      | 1.083351e+00 |    Inf | unknown
r 0.1s|     1 |     0 |  1270 |     - |simplero|   0 | 765 |  77 |  77 |   0 |  0 |   0 |   0 |      --      | 1.043182e+00 |    Inf | unknown
r 0.1s|     1 |     0 |  1271 |     - |simplero|   0 | 765 |  77 |  77 |   0 |  0 |   0 |   0 |      --      | 1.043149e+00 |    Inf | unknown
r 0.1s|     1 |     0 |  1306 |     - |simplero|   0 | 776 |  77 |  77 |   0 |  0 |   0 |   0 |      --      | 7.808416e-01 |    Inf | unknown
r 0.1s|     1 |     0 |  1318 |     - |simplero|   0 | 776 |  77 |  77 |   0 |  0 |   0 |   0 |      --      | 7.548871e-01 |    Inf | unknown
r 0.1s|     1 |     0 |  1345 |     - |simplero|   0 | 787 |  77 |  77 |   0 |  0 |   0 |   0 |      --      | 4.336699e-01 |    Inf | unknown
r 0.1s|     1 |     0 |  1363 |     - |simplero|   0 | 787 |  77 |  77 |   0 |  0 |   0 |   0 |      --      | 3.793083e-01 |    Inf | unknown
r 0.1s|     1 |     0 |  1370 |     - |simplero|   0 | 787 |  77 |  77 |   0 |  0 |   0 |   0 |      --      | 3.718448e-01 |    Inf | unknown
r 0.1s|     1 |     0 |  1411 |     - |simplero|   0 | 798 |  77 |  77 |   0 |  0 |   0 |   0 |      --      | 1.407601e-01 |    Inf | unknown
r 0.1s|     1 |     0 |  1415 |     - |simplero|   0 | 798 |  77 |  77 |   0 |  0 |   0 |   0 |      --      | 1.398078e-01 |    Inf | unknown
r 0.1s|     1 |     0 |  1441 |     - |simplero|   0 | 809 |  77 |  77 |   0 |  0 |   0 |   0 |      --      | 3.126391e-02 |    Inf | unknown
r 0.1s|     1 |     0 |  1448 |     - |simplero|   0 | 820 |  77 |  77 |   0 |  0 |   0 |   0 |      --      |-8.326673e-17 |    Inf | unknown
  0.1s|     1 |     0 |  1448 |     - |  4027k |   0 | 820 |  77 |  77 |   0 |  0 |   0 |   0 |-8.326673e-17 |-8.326673e-17 |   0.00%| unknown
 time | node  | left  |LP iter|LP it/n|mem/heur|mdpt |vars |cons |rows |cuts |sepa|confs|strbr|  dualbound   | primalbound  |  gap   | compl. 
  0.1s|     1 |     0 |  1448 |     - |  4027k |   0 | 820 |  77 |  77 |   0 |  0 |   0 |   0 |-8.326673e-17 |-8.326673e-17 |   0.00%| unknown

SCIP Status        : problem is solved [optimal solution found]
Solving Time (sec) : 0.09
Solving Nodes      : 1
Primal Bound       : -8.32667268468867e-17 (28 solutions)
Dual Bound         : -8.32667268468867e-17
Gap                : 0.00 %

written transformed problem to file <results_rootrelaxation/bin012_050_025.srr.lp>
written transformed problem to file <results_rootrelaxation/bin012_050_025.srr.cip>


SCIP version 8.0.3.5 [precision: 8 byte] [memory: block] [mode: optimized] [LP solver: Soplex 6.0.1.3] [GitHash: 438792519e]
Copyright (c) 2002-2023 Zuse Institute Berlin (ZIB)

External libraries: 
  Readline 8.1         GNU library for command line editing (gnu.org/s/readline)
  Soplex 6.0.1.3       Linear Programming Solver developed at Zuse Institute Berlin (soplex.zib.de) [GitHash: 713be0fe]
  CppAD 20180000.0     Algorithmic Differentiation of C++ algorithms developed by B. Bell (github.com/coin-or/CppAD)
  ZLIB 1.2.11          General purpose compression library by J. Gailly and M. Adler (zlib.net)
  bliss 0.77           Computing Graph Automorphism Groups by T. Junttila and P. Kaski (www.tcs.hut.fi/Software/bliss/)

user parameter file <scip.set> not found - using default parameters

srr/relaxation = TRUE

read problem <instances/bin012_050_025.srr>
============

Original problem: 
original problem has 0 variables (0 bin, 0 int, 0 impl, 0 cont) and 77 constraints

presolving:
presolving (1 rounds: 1 fast, 1 medium, 1 exhaustive):
 0 deleted vars, 0 deleted constraints, 0 added constraints, 0 tightened bounds, 0 added holes, 0 changed sides, 0 changed coefficients
 0 implications, 0 cliques
presolved problem has 0 variables (0 bin, 0 int, 0 impl, 0 cont) and 77 constraints
     77 constraints of type <linear>
Presolving Time: 0.00

 time | node  | left  |LP iter|LP it/n|mem/heur|mdpt |vars |cons |rows |cuts |sepa|confs|strbr|  dualbound   | primalbound  |  gap   | compl. 
  0.0s|     1 |     0 |     1 |     - |   710k |   0 |   1 |  77 |  77 |   0 |  0 |   0 |   0 |      --      |      --      |    Inf | unknown
r 0.0s|     1 |     0 |   793 |     - |simplero|   0 | 666 |  77 |  77 |   0 |  0 |   0 |   0 |      --      | 1.275620e+01 |    Inf | unknown
r 0.0s|     1 |     0 |   831 |     - |simplero|   0 | 677 |  77 |  77 |   0 |  0 |   0 |   0 |      --      | 1.122358e+01 |    Inf | unknown
r 0.0s|     1 |     0 |   872 |     - |simplero|   0 | 688 |  77 |  77 |   0 |  0 |   0 |   0 |      --      | 1.039988e+01 |    Inf | unknown
r 0.0s|     1 |     0 |   914 |     - |simplero|   0 | 699 |  77 |  77 |   0 |  0 |   0 |   0 |      --      | 8.624319e+00 |    Inf | unknown
r 0.0s|     1 |     0 |   934 |     - |simplero|   0 | 699 |  77 |  77 |   0 |  0 |   0 |   0 |      --      | 8.510540e+00 |    Inf | unknown
r 0.0s|     1 |     0 |   978 |     - |simplero|   0 | 710 |  77 |  77 |   0 |  0 |   0 |   0 |      --      | 6.403027e+00 |    Inf | unknown
r 0.1s|     1 |     0 |   988 |     - |simplero|   0 | 710 |  77 |  77 |   0 |  0 |   0 |   0 |      --      | 6.366798e+00 |    Inf | unknown
r 0.1s|     1 |     0 |  1035 |     - |simplero|   0 | 721 |  77 |  77 |   0 |  0 |   0 |   0 |      --      | 5.298636e+00 |    Inf | unknown
r 0.1s|     1 |     0 |  1106 |     - |simplero|   0 | 732 |  77 |  77 |   0 |  0 |   0 |   0 |      --      | 3.836802e+00 |    Inf | unknown
r 0.1s|     1 |     0 |  1110 |     - |simplero|   0 | 732 |  77 |  77 |   0 |  0 |   0 |   0 |      --      | 3.828457e+00 |    Inf | unknown
r 0.1s|     1 |     0 |  1146 |     - |simplero|   0 | 743 |  77 |  77 |   0 |  0 |   0 |   0 |      --      | 2.992362e+00 |    Inf | unknown
r 0.1s|     1 |     0 |  1158 |     - |simplero|   0 | 743 |  77 |  77 |   0 |  0 |   0 |   0 |      --      | 2.919515e+00 |    Inf | unknown
r 0.1s|     1 |     0 |  1197 |     - |simplero|   0 | 754 |  77 |  77 |   0 |  0 |   0 |   0 |      --      | 2.039603e+00 |    Inf | unknown
r 0.1s|     1 |     0 |  1203 |     - |simplero|   0 | 754 |  77 |  77 |   0 |  0 |   0 |   0 |      --      | 2.016606e+00 |    Inf | unknown
 time | node  | left  |LP iter|LP it/n|mem/heur|mdpt |vars |cons |rows |cuts |sepa|confs|strbr|  dualbound   | primalbound  |  gap   | compl. 
r 0.1s|     1 |     0 |  1207 |     - |simplero|   0 | 754 |  77 |  77 |   0 |  0 |   0 |   0 |      --      | 2.015018e+00 |    Inf | unknown
r 0.1s|     1 |     0 |  1238 |     - |simplero|   0 | 765 |  77 |  77 |   0 |  0 |   0 |   0 |      --      | 1.265714e+00 |    Inf | unknown
r 0.1s|     1 |     0 |  1259 |     - |simplero|   0 | 765 |  77 |  77 |   0 |  0 |   0 |   0 |      --      | 1.083351e+00 |    Inf | unknown
r 0.1s|     1 |     0 |  1270 |     - |simplero|   0 | 765 |  77 |  77 |   0 |  0 |   0 |   0 |      --      | 1.043182e+00 |    Inf | unknown
r 0.1s|     1 |     0 |  1271 |     - |simplero|   0 | 765 |  77 |  77 |   0 |  0 |   0 |   0 |      --      | 1.043149e+00 |    Inf | unknown
r 0.1s|     1 |     0 |  1306 |     - |simplero|   0 | 776 |  77 |  77 |   0 |  0 |   0 |   0 |      --      | 7.808416e-01 |    Inf | unknown
r 0.1s|     1 |     0 |  1318 |     - |simplero|   0 | 776 |  77 |  77 |   0 |  0 |   0 |   0 |      --      | 7.548871e-01 |    Inf | unknown
r 0.1s|     1 |     0 |  1345 |     - |simplero|   0 | 787 |  77 |  77 |   0 |  0 |   0 |   0 |      --      | 4.336699e-01 |    Inf | unknown
r 0.1s|     1 |     0 |  1363 |     - |simplero|   0 | 787 |  77 |  77 |   0 |  0 |   0 |   0 |      --      | 3.793083e-01 |    Inf | unknown
r 0.1s|     1 |     0 |  1370 |     - |simplero|   0 | 787 |  77 |  77 |   0 |  0 |   0 |   0 |      --      | 3.718448e-01 |    Inf | unknown
r 0.1s|     1 |     0 |  1411 |     - |simplero|   0 | 798 |  77 |  77 |   0 |  0 |   0 |   0 |      --      | 1.407601e-01 |    Inf | unknown
r 0.1s|     1 |     0 |  1415 |     - |simplero|   0 | 798 |  77 |  77 |   0 |  0 |   0 |   0 |      --      | 1.398078e-01 |    Inf | unknown
r 0.1s|     1 |     0 |  1441 |     - |simplero|   0 | 809 |  77 |  77 |   0 |  0 |   0 |   0 |      --      | 3.126391e-02 |    Inf | unknown
r 0.1s|     1 |     0 |  1448 |     - |simplero|   0 | 820 |  77 |  77 |   0 |  0 |   0 |   0 |      --      |-8.326673e-17 |    Inf | unknown
  0.1s|     1 |     0 |  1448 |     - |  4027k |   0 | 820 |  77 |  77 |   0 |  0 |   0 |   0 |-8.326673e-17 |-8.326673e-17 |   0.00%| unknown
 time | node  | left  |LP iter|LP it/n|mem/heur|mdpt |vars |cons |rows |cuts |sepa|confs|strbr|  dualbound   | primalbound  |  gap   | compl. 
  0.1s|     1 |     0 |  1448 |     - |  4027k |   0 | 820 |  77 |  77 |   0 |  0 |   0 |   0 |-8.326673e-17 |-8.326673e-17 |   0.00%| unknown

SCIP Status        : problem is solved [optimal solution found]
Solving Time (sec) : 0.07
Solving Nodes      : 1
Primal Bound       : -8.32667268468867e-17 (28 solutions)
Dual Bound         : -8.32667268468867e-17
Gap                : 0.00 %

written transformed problem to file <results_rootrelaxation/bin012_050_025.srr.lp>
written transformed problem to file <results_rootrelaxation/bin012_050_025.srr.cip>

written solution information to file <results_rootrelaxation/bin012_050_025.srr.sol>



